Route #1: 14 27 12 2 24 51 42
Route #2: 13 22 33 21 9 17
Route #3: 43 23 20 10 35 15 29 39 50
Route #4: 18 5 28 7 49 36 26 45 1 4
Route #5: 52 16 6 46 41 47 25
Route #6: 30 37 48 40 31 8 19 34
Route #7: 38 44 3 53 11 32
cost 1314.1451416015625